NAME : a280.tsp
COMMENT : Optimal tour for a280.tsp
TYPE : TOUR
DIMENSION : 280
Total Length: 2833.9441260192702
TOUR_SECTION
1
3
279
278
277
4
5
6
7
8
10
11
12
13
15
14
24
23
25
22
26
27
28
29
31
32
33
34
36
37
38
35
39
40
41
42
43
60
61
62
118
117
115
116
86
87
84
85
65
66
67
64
63
58
59
44
45
46
47
48
49
50
51
52
53
54
55
56
57
68
69
70
71
72
73
74
75
77
78
76
83
88
112
113
114
111
110
107
174
173
106
105
104
108
109
89
82
81
79
80
90
91
92
93
94
95
96
97
98
99
100
101
102
103
169
170
172
171
168
167
166
165
164
163
162
161
175
160
159
158
157
119
120
121
122
123
124
125
30
126
127
128
21
20
19
18
17
16
271
9
276
275
274
273
272
270
134
133
132
131
130
129
154
155
153
156
152
151
177
176
181
182
183
184
185
186
187
188
189
190
191
192
193
180
179
178
150
149
139
138
137
136
135
269
268
267
266
140
141
148
147
142
146
143
144
145
199
198
197
194
195
196
201
200
202
203
204
205
206
265
264
263
262
261
260
259
258
257
254
253
208
207
212
213
216
217
220
221
222
219
223
224
225
226
227
228
218
215
214
211
210
209
252
255
256
249
248
280
2
242
241
240
239
238
237
236
235
234
233
232
231
246
229
230
251
250
247
245
244
243
-1
EOF
